c A SAT instance generated from a 3-CNF formula that had 48 clauses and 12 variables
p cnf 12 48
-6 -12 -10 0
-9 4 -12 0
-10 5 9 0
-7 11 10 0
5 2 -10 0
3 10 -8 0
1 9 7 0
-10 4 -3 0
-11 -6 1 0
4 -5 11 0
-1 6 5 0
1 -3 -9 0
8 11 -6 0
8 -3 10 0
5 -10 -2 0
11 8 -7 0
-5 1 2 0
-1 5 9 0
7 9 -2 0
-3 2 1 0
3 2 9 0
-6 -7 -1 0
-4 1 -2 0
-1 10 -3 0
-9 5 -1 0
-12 7 -8 0
7 4 1 0
-9 -12 5 0
11 -9 4 0
-9 -12 10 0
-4 6 2 0
7 6 11 0
7 4 -5 0
12 1 3 0
6 11 -10 0
3 -9 -2 0
-11 -4 9 0
-9 1 -10 0
10 11 -4 0
-3 10 -7 0
-6 5 9 0
-3 4 2 0
7 12 11 0
9 11 -12 0
9 1 2 0
10 11 -2 0
12 2 -3 0
5 -6 1 0
